hw4-Switching|BigM/hw4_2C.dat
set I := 1 2 3 4 5;
set J := 1 2 3 4 5 6 7 8;
param M := 1000000;

param f :=
1 160
2 49
3 246
4 86
5 100;

param d :=
1 400
2 100
3 300
4 100
5 200
6 300
7 200
8 400;

param c:
1 2 3 4 5 6 7 8:=
1 0.0 0.4 0.8 0.4 0.8 0.3 0.6 0.5
2 0.7 0.0 0.8 0.4 0.4 0.5 0.3 0.6
3 0.6 0.4 0.0 0.5 0.4 0.6 0.5 0.6
4 0.6 0.4 0.9 0.0 0.4 0.4 0.2 0.4
5 0.9 0.4 0.7 0.4 0.0 0.7 0.3 0.5;
