hw4-Switching|BigM/hw4_2C.out
x [*,*] (tr)
:    1     2    3    4     5     :=
1   400     0   0     0     0
2     0   100   0     0     0
3     0     0   0     0   300
4     0     0   0   100     0
5     0     0   0     0   200
6   300     0   0     0     0
7     0     1   0   199     0
8     0     0   0   400     0
;

y [*] :=
1  1
2  1
3  0
4  1
5  1
;

Total_Cost = 895.1

